33D32945 STP File, STP Format Version 1.0

SECTION Comment
Name    "i160-344"
Creator "Cees Duin"
Remark  "Incidence graph"
END

SECTION Graph
Nodes 160
Edges 2544
E 1 5 305
E 1 12 303
E 1 13 301
E 1 19 299
E 1 26 295
E 1 31 303
E 1 35 296
E 1 38 297
E 1 43 196
E 1 45 200
E 1 46 201
E 1 48 198
E 1 49 208
E 1 51 204
E 1 52 202
E 1 53 203
E 1 73 204
E 1 76 196
E 1 81 197
E 1 84 195
E 1 85 202
E 1 87 199
E 1 93 195
E 1 99 197
E 1 100 198
E 1 101 197
E 1 105 195
E 1 116 197
E 1 118 203
E 1 121 201
E 1 122 202
E 1 129 199
E 1 132 201
E 1 135 208
E 1 141 200
E 1 153 205
E 1 160 192
E 2 7 307
E 2 18 297
E 2 19 304
E 2 27 296
E 2 52 206
E 2 54 193
E 2 57 197
E 2 59 203
E 2 61 201
E 2 63 187
E 2 64 207
E 2 69 201
E 2 75 205
E 2 76 194
E 2 88 197
E 2 89 185
E 2 92 196
E 2 93 198
E 2 96 192
E 2 97 202
E 2 98 191
E 2 100 195
E 2 106 199
E 2 110 203
E 2 114 208
E 2 127 200
E 2 128 201
E 2 132 201
E 2 138 200
E 2 140 201
E 2 150 200
E 2 155 199
E 2 160 205
E 3 11 292
E 3 12 307
E 3 15 292
E 3 21 292
E 3 24 302
E 3 27 292
E 3 31 306
E 3 41 208
E 3 44 198
E 3 49 201
E 3 54 203
E 3 55 192
E 3 56 193
E 3 60 206
E 3 64 202
E 3 69 202
E 3 71 206
E 3 76 201
E 3 81 203
E 3 82 203
E 3 84 199
E 3 95 197
E 3 103 203
E 3 118 195
E 3 122 196
E 3 125 200
E 3 136 203
E 3 140 198
E 3 142 203
E 3 143 199
E 3 147 188
E 3 150 195
E 4 5 307
E 4 6 298
E 4 21 302
E 4 26 314
E 4 29 295
E 4 35 299
E 4 37 298
E 4 48 195
E 4 50 190
E 4 54 204
E 4 55 205
E 4 59 198
E 4 60 192
E 4 62 197
E 4 65 192
E 4 75 199
E 4 80 196
E 4 82 200
E 4 85 202
E 4 86 205
E 4 88 198
E 4 94 200
E 4 95 206
E 4 100 204
E 4 108 198
E 4 112 197
E 4 114 210
E 4 121 198
E 4 130 197
E 4 138 205
E 4 140 201
E 4 142 207
E 4 147 194
E 4 149 203
E 4 157 194
E 4 158 201
E 4 159 202
E 5 14 296
E 5 17 302
E 5 22 302
E 5 30 306
E 5 31 300
E 5 41 194
E 5 43 202
E 5 44 202
E 5 46 208
E 5 48 194
E 5 54 203
E 5 62 197
E 5 63 201
E 5 66 204
E 5 73 205
E 5 76 200
E 5 84 200
E 5 91 197
E 5 95 197
E 5 103 200
E 5 115 198
E 5 128 207
E 5 129 206
E 5 131 202
E 5 133 199
E 5 134 199
E 5 135 201
E 5 136 191
E 5 146 200
E 5 148 201
E 5 158 196
E 6 15 294
E 6 21 305
E 6 23 297
E 6 34 303
E 6 38 292
E 6 39 305
E 6 43 209
E 6 52 200
E 6 67 195
E 6 71 202
E 6 76 209
E 6 77 195
E 6 84 197
E 6 88 188
E 6 90 197
E 6 91 196
E 6 97 201
E 6 101 206
E 6 102 207
E 6 107 194
E 6 123 198
E 6 129 198
E 6 131 201
E 6 133 209
E 6 135 193
E 6 136 192
E 6 139 206
E 6 142 200
E 6 146 189
E 6 160 204
E 7 11 288
E 7 15 303
E 7 17 293
E 7 20 299
E 7 25 297
E 7 35 303
E 7 39 302
E 7 44 192
E 7 45 201
E 7 46 198
E 7 70 202
E 7 73 204
E 7 74 218
E 7 77 200
E 7 78 198
E 7 84 205
E 7 99 203
E 7 101 200
E 7 108 191
E 7 111 196
E 7 118 196
E 7 124 197
E 7 126 194
E 7 134 204
E 7 139 204
E 7 144 200
E 7 156 200
E 8 10 295
E 8 16 295
E 8 20 294
E 8 21 298
E 8 28 299
E 8 29 303
E 8 38 293
E 8 45 201
E 8 50 199
E 8 53 195
E 8 60 198
E 8 66 203
E 8 69 205
E 8 78 199
E 8 96 193
E 8 102 194
E 8 112 194
E 8 115 202
E 8 118 200
E 8 135 198
E 8 137 203
E 8 143 198
E 8 150 199
E 8 153 192
E 8 160 190
E 9 19 305
E 9 21 293
E 9 24 294
E 9 26 300
E 9 43 197
E 9 45 198
E 9 49 184
E 9 56 186
E 9 65 199
E 9 70 201
E 9 71 198
E 9 79 201
E 9 82 204
E 9 84 202
E 9 89 197
E 9 93 200
E 9 97 212
E 9 98 201
E 9 102 201
E 9 103 211
E 9 104 204
E 9 106 195
E 9 110 203
E 9 111 197
E 9 113 201
E 9 118 202
E 9 123 209
E 9 124 199
E 9 126 199
E 9 131 200
E 9 133 200
E 9 135 201
E 9 137 203
E 9 158 200
E 9 159 196
E 10 27 298
E 10 31 295
E 10 37 289
E 10 38 305
E 10 40 307
E 10 42 200
E 10 45 188
E 10 47 208
E 10 49 191
E 10 53 197
E 10 55 193
E 10 76 197
E 10 77 202
E 10 79 203
E 10 85 207
E 10 86 204
E 10 89 197
E 10 90 206
E 10 97 197
E 10 107 198
E 10 111 197
E 10 116 202
E 10 118 199
E 10 120 198
E 10 121 201
E 10 128 201
E 10 129 199
E 10 130 202
E 10 134 197
E 10 140 188
E 10 145 195
E 10 146 197
E 10 147 197
E 10 150 204
E 10 153 204
E 10 156 194
E 11 13 306
E 11 15 304
E 11 17 291
E 11 18 302
E 11 21 299
E 11 34 292
E 11 45 199
E 11 46 196
E 11 52 198
E 11 60 196
E 11 69 196
E 11 75 202
E 11 79 195
E 11 90 195
E 11 94 206
E 11 95 200
E 11 103 199
E 11 104 206
E 11 109 202
E 11 125 203
E 11 127 199
E 11 130 203
E 11 136 206
E 11 138 203
E 11 143 196
E 11 151 190
E 11 153 196
E 12 24 298
E 12 67 200
E 12 68 203
E 12 70 202
E 12 80 206
E 12 82 196
E 12 86 198
E 12 88 197
E 12 105 197
E 12 106 210
E 12 112 201
E 12 118 200
E 12 119 199
E 12 125 202
E 12 129 197
E 12 131 197
E 12 137 203
E 12 139 195
E 12 140 200
E 12 141 197
E 12 149 200
E 12 154 195
E 12 157 194
E 12 158 198
E 12 159 201
E 13 18 295
E 13 26 290
E 13 28 307
E 13 29 299
E 13 32 302
E 13 45 200
E 13 48 195
E 13 52 204
E 13 54 202
E 13 56 196
E 13 57 197
E 13 59 190
E 13 62 195
E 13 65 194
E 13 79 199
E 13 86 201
E 13 93 209
E 13 103 201
E 13 139 201
E 13 142 199
E 13 148 201
E 13 149 196
E 13 150 203
E 13 151 200
E 13 158 198
E 13 159 199
E 13 160 202
E 14 16 304
E 14 25 311
E 14 29 301
E 14 33 301
E 14 36 308
E 14 41 200
E 14 44 192
E 14 45 201
E 14 55 199
E 14 57 197
E 14 71 205
E 14 81 201
E 14 89 189
E 14 90 194
E 14 101 199
E 14 116 206
E 14 122 208
E 14 124 197
E 14 126 195
E 14 132 191
E 14 140 205
E 14 145 197
E 14 152 196
E 14 153 201
E 14 154 196
E 15 17 304
E 15 18 299
E 15 20 306
E 15 24 300
E 15 30 293
E 15 34 302
E 15 35 305
E 15 37 298
E 15 41 205
E 15 43 200
E 15 44 199
E 15 45 210
E 15 57 195
E 15 61 200
E 15 70 198
E 15 71 207
E 15 82 198
E 15 86 191
E 15 90 195
E 15 93 207
E 15 95 203
E 15 103 201
E 15 107 200
E 15 113 204
E 15 115 206
E 15 116 199
E 15 128 200
E 15 134 196
E 15 135 203
E 15 138 189
E 15 141 203
E 15 142 198
E 15 149 195
E 15 160 205
E 16 20 300
E 16 32 292
E 16 35 300
E 16 45 189
E 16 47 202
E 16 57 189
E 16 62 205
E 16 66 197
E 16 77 187
E 16 104 197
E 16 116 202
E 16 124 194
E 16 127 195
E 16 151 196
E 17 18 302
E 17 19 306
E 17 25 300
E 17 42 201
E 17 50 205
E 17 66 204
E 17 68 204
E 17 72 207
E 17 73 203
E 17 82 203
E 17 85 203
E 17 92 194
E 17 106 203
E 17 108 201
E 17 118 197
E 17 121 191
E 17 127 200
E 17 130 200
E 17 133 192
E 17 134 204
E 17 135 190
E 17 140 204
E 17 141 206
E 17 143 198
E 17 144 198
E 17 145 196
E 17 146 198
E 17 150 205
E 17 158 206
E 18 20 293
E 18 23 298
E 18 30 305
E 18 32 298
E 18 36 302
E 18 44 198
E 18 53 198
E 18 62 206
E 18 64 199
E 18 78 194
E 18 80 193
E 18 87 208
E 18 91 197
E 18 92 200
E 18 96 193
E 18 106 202
E 18 107 210
E 18 109 199
E 18 111 202
E 18 116 207
E 18 118 195
E 18 134 200
E 18 140 191
E 18 145 201
E 18 149 209
E 18 150 196
E 18 156 198
E 18 158 192
E 18 160 191
E 19 28 308
E 19 29 302
E 19 31 305
E 19 32 301
E 19 36 306
E 19 47 196
E 19 50 205
E 19 53 195
E 19 68 192
E 19 72 203
E 19 74 193
E 19 75 203
E 19 77 205
E 19 78 203
E 19 83 200
E 19 93 207
E 19 98 199
E 19 103 200
E 19 105 203
E 19 108 199
E 19 112 205
E 19 115 187
E 19 118 207
E 19 124 196
E 19 128 197
E 19 129 202
E 19 131 189
E 19 132 208
E 19 138 197
E 19 142 191
E 19 143 201
E 19 153 205
E 19 157 201
E 20 21 302
E 20 26 299
E 20 28 305
E 20 34 305
E 20 36 297
E 20 38 298
E 20 42 199
E 20 43 205
E 20 45 197
E 20 46 207
E 20 47 210
E 20 52 200
E 20 60 201
E 20 69 205
E 20 74 190
E 20 78 202
E 20 81 192
E 20 83 191
E 20 94 206
E 20 95 199
E 20 97 198
E 20 102 204
E 20 103 206
E 20 107 201
E 20 118 201
E 20 121 201
E 20 128 195
E 20 144 205
E 20 145 195
E 20 148 202
E 20 157 198
E 20 160 192
E 21 26 304
E 21 29 302
E 21 34 302
E 21 38 297
E 21 39 304
E 21 41 206
E 21 49 203
E 21 51 208
E 21 55 207
E 21 63 192
E 21 64 185
E 21 71 203
E 21 85 199
E 21 98 194
E 21 99 194
E 21 106 198
E 21 108 196
E 21 112 193
E 21 114 200
E 21 120 197
E 21 121 188
E 21 129 206
E 21 142 198
E 21 147 200
E 21 156 202
E 21 160 196
E 22 46 202
E 22 57 195
E 22 63 192
E 22 76 199
E 22 89 198
E 22 90 197
E 22 95 199
E 22 97 199
E 22 102 196
E 22 105 196
E 22 107 198
E 22 109 200
E 22 113 199
E 22 116 199
E 22 121 201
E 22 123 193
E 22 124 191
E 22 125 205
E 22 126 197
E 22 130 194
E 22 133 206
E 22 134 209
E 22 141 207
E 22 152 198
E 22 155 199
E 22 160 201
E 23 25 300
E 23 29 306
E 23 37 296
E 23 47 191
E 23 48 194
E 23 59 198
E 23 61 207
E 23 71 197
E 23 80 192
E 23 87 198
E 23 104 194
E 23 105 193
E 23 111 196
E 23 115 195
E 23 123 198
E 23 131 199
E 23 139 207
E 23 150 208
E 23 154 210
E 23 156 189
E 23 160 210
E 24 27 299
E 24 28 310
E 24 32 298
E 24 34 299
E 24 36 305
E 24 37 298
E 24 40 300
E 24 42 196
E 24 46 199
E 24 51 202
E 24 56 201
E 24 59 202
E 24 62 204
E 24 70 199
E 24 75 195
E 24 78 199
E 24 84 202
E 24 88 201
E 24 89 201
E 24 92 196
E 24 93 201
E 24 95 194
E 24 100 201
E 24 103 202
E 24 112 194
E 24 124 204
E 24 125 204
E 24 126 197
E 24 134 202
E 24 140 194
E 24 146 192
E 24 152 199
E 25 26 307
E 25 43 204
E 25 51 199
E 25 53 201
E 25 57 199
E 25 60 199
E 25 61 200
E 25 69 195
E 25 74 194
E 25 75 205
E 25 82 203
E 25 86 193
E 25 91 200
E 25 92 192
E 25 97 201
E 25 101 213
E 25 103 194
E 25 107 195
E 25 115 193
E 25 118 200
E 25 119 199
E 25 120 210
E 25 123 205
E 25 129 204
E 25 136 202
E 25 145 199
E 25 146 201
E 25 150 194
E 25 158 201
E 25 160 190
E 26 32 301
E 26 34 306
E 26 37 305
E 26 45 201
E 26 46 193
E 26 59 192
E 26 65 199
E 26 72 204
E 26 77 199
E 26 89 200
E 26 96 200
E 26 98 199
E 26 105 200
E 26 109 202
E 26 112 198
E 26 117 192
E 26 121 195
E 26 124 200
E 26 128 198
E 26 137 199
E 26 139 196
E 26 160 203
E 27 32 300
E 27 34 303
E 27 35 301
E 27 51 204
E 27 72 195
E 27 76 200
E 27 83 204
E 27 98 205
E 27 100 196
E 27 104 202
E 27 109 202
E 27 112 207
E 27 115 205
E 27 122 194
E 27 125 192
E 27 126 201
E 27 130 195
E 27 135 200
E 27 148 211
E 27 153 208
E 27 154 203
E 28 29 292
E 28 34 295
E 28 41 183
E 28 53 194
E 28 54 200
E 28 56 200
E 28 63 196
E 28 64 195
E 28 67 203
E 28 81 195
E 28 86 199
E 28 90 201
E 28 91 197
E 28 92 195
E 28 94 195
E 28 105 202
E 28 106 195
E 28 108 206
E 28 109 201
E 28 112 195
E 28 114 198
E 28 124 194
E 28 126 199
E 28 128 204
E 28 132 201
E 28 136 195
E 28 142 204
E 28 148 192
E 28 150 198
E 28 151 200
E 29 42 199
E 29 44 199
E 29 45 199
E 29 59 207
E 29 60 202
E 29 65 197
E 29 75 200
E 29 80 199
E 29 89 192
E 29 92 208
E 29 100 208
E 29 103 199
E 29 104 200
E 29 106 203
E 29 110 200
E 29 111 201
E 29 112 206
E 29 114 203
E 29 115 197
E 29 119 207
E 29 122 203
E 29 124 206
E 29 133 196
E 29 154 192
E 29 155 193
E 29 159 193
E 30 37 301
E 30 40 302
E 30 42 194
E 30 45 202
E 30 55 210
E 30 59 198
E 30 61 187
E 30 71 203
E 30 85 204
E 30 91 207
E 30 96 195
E 30 98 195
E 30 101 186
E 30 106 191
E 30 109 193
E 30 115 202
E 30 123 203
E 30 125 202
E 30 139 202
E 30 141 205
E 30 142 199
E 30 150 203
E 30 152 199
E 30 153 197
E 31 35 297
E 31 44 198
E 31 51 201
E 31 56 192
E 31 58 201
E 31 64 196
E 31 69 200
E 31 70 206
E 31 76 203
E 31 77 205
E 31 79 193
E 31 86 191
E 31 93 197
E 31 94 201
E 31 101 194
E 31 104 201
E 31 111 203
E 31 142 200
E 31 145 194
E 31 147 198
E 32 34 294
E 32 36 314
E 32 37 293
E 32 39 304
E 32 41 202
E 32 43 201
E 32 55 194
E 32 57 203
E 32 65 193
E 32 67 190
E 32 70 196
E 32 71 208
E 32 80 200
E 32 84 191
E 32 86 210
E 32 90 199
E 32 92 197
E 32 95 205
E 32 100 205
E 32 103 203
E 32 105 197
E 32 108 214
E 32 112 206
E 32 122 200
E 32 123 199
E 32 132 199
E 32 133 196
E 32 157 207
E 32 159 204
E 33 34 300
E 33 37 304
E 33 48 212
E 33 49 194
E 33 51 205
E 33 54 197
E 33 56 203
E 33 58 196
E 33 63 188
E 33 72 196
E 33 73 199
E 33 78 203
E 33 83 202
E 33 90 213
E 33 91 195
E 33 98 196
E 33 101 200
E 33 107 199
E 33 111 201
E 33 120 201
E 33 136 203
E 33 145 201
E 33 147 201
E 33 156 196
E 33 158 194
E 34 36 298
E 34 38 295
E 34 40 297
E 34 44 190
E 34 45 206
E 34 49 199
E 34 50 202
E 34 58 200
E 34 67 196
E 34 69 199
E 34 70 201
E 34 73 197
E 34 76 195
E 34 79 199
E 34 84 204
E 34 86 206
E 34 88 196
E 34 95 200
E 34 102 195
E 34 106 191
E 34 107 200
E 34 109 205
E 34 112 198
E 34 116 194
E 34 120 209
E 34 123 184
E 34 125 202
E 34 132 203
E 34 135 198
E 34 147 200
E 34 150 202
E 34 153 201
E 35 39 296
E 35 44 199
E 35 46 191
E 35 50 204
E 35 56 202
E 35 58 205
E 35 61 205
E 35 70 200
E 35 78 202
E 35 79 201
E 35 84 197
E 35 86 201
E 35 87 201
E 35 91 199
E 35 98 207
E 35 114 194
E 35 119 195
E 35 122 196
E 35 125 192
E 35 126 207
E 35 134 202
E 35 135 196
E 35 139 203
E 35 141 192
E 35 142 200
E 35 143 200
E 35 147 204
E 35 154 196
E 35 159 190
E 36 37 291
E 36 39 287
E 36 42 199
E 36 48 200
E 36 49 198
E 36 52 206
E 36 58 197
E 36 60 196
E 36 62 204
E 36 69 198
E 36 71 196
E 36 88 205
E 36 89 199
E 36 92 197
E 36 94 195
E 36 97 198
E 36 101 199
E 36 102 205
E 36 108 208
E 36 109 196
E 36 120 199
E 36 122 196
E 36 130 209
E 36 132 205
E 36 133 195
E 36 134 199
E 36 139 204
E 36 148 214
E 36 150 204
E 36 152 204
E 36 155 199
E 36 158 200
E 37 42 204
E 37 43 199
E 37 45 189
E 37 46 197
E 37 53 205
E 37 58 205
E 37 60 204
E 37 63 203
E 37 67 192
E 37 70 195
E 37 74 199
E 37 75 206
E 37 77 200
E 37 79 199
E 37 87 190
E 37 88 193
E 37 89 208
E 37 91 197
E 37 92 192
E 37 95 200
E 37 97 193
E 37 101 198
E 37 102 202
E 37 104 195
E 37 106 201
E 37 111 191
E 37 115 194
E 37 117 195
E 37 118 193
E 37 119 201
E 37 120 200
E 37 129 201
E 37 132 189
E 37 134 203
E 37 140 200
E 37 152 196
E 37 155 205
E 37 156 198
E 37 157 199
E 38 39 293
E 38 47 191
E 38 60 196
E 38 66 206
E 38 76 195
E 38 91 192
E 38 93 208
E 38 96 203
E 38 98 204
E 38 99 193
E 38 102 203
E 38 106 199
E 38 108 195
E 38 112 204
E 38 115 206
E 38 118 200
E 38 126 200
E 38 127 193
E 38 132 196
E 38 135 205
E 38 152 210
E 38 155 197
E 38 160 208
E 39 43 194
E 39 52 200
E 39 54 206
E 39 57 194
E 39 61 200
E 39 72 199
E 39 75 188
E 39 91 197
E 39 100 201
E 39 101 201
E 39 102 199
E 39 109 201
E 39 124 201
E 39 128 201
E 39 135 203
E 39 138 201
E 39 140 200
E 39 149 199
E 39 151 204
E 40 47 200
E 40 53 194
E 40 55 198
E 40 61 198
E 40 63 206
E 40 65 192
E 40 71 211
E 40 77 197
E 40 78 199
E 40 81 195
E 40 82 201
E 40 84 201
E 40 97 188
E 40 104 197
E 40 107 205
E 40 108 195
E 40 132 196
E 40 137 213
E 40 143 202
E 40 145 198
E 40 153 198
E 40 155 194
E 40 156 187
E 40 157 204
E 41 47 103
E 41 52 100
E 41 57 101
E 41 58 98
E 41 70 102
E 41 72 108
E 41 78 107
E 41 82 108
E 41 85 112
E 41 88 98
E 41 89 92
E 41 94 107
E 41 105 98
E 41 108 101
E 41 113 103
E 41 115 99
E 41 118 102
E 41 127 93
E 41 136 97
E 41 137 108
E 41 138 101
E 41 140 90
E 41 147 108
E 41 148 97
E 41 153 95
E 41 160 97
E 42 50 104
E 42 52 103
E 42 72 93
E 42 78 104
E 42 83 98
E 42 86 101
E 42 89 106
E 42 94 100
E 42 97 96
E 42 101 101
E 42 106 105
E 42 109 101
E 42 111 93
E 42 122 96
E 42 125 111
E 42 128 97
E 42 132 97
E 42 133 96
E 42 139 107
E 42 148 104
E 42 157 96
E 42 160 101
E 43 45 105
E 43 48 102
E 43 50 98
E 43 67 98
E 43 75 99
E 43 88 97
E 43 89 99
E 43 97 98
E 43 114 102
E 43 116 105
E 43 117 91
E 43 118 97
E 43 135 101
E 43 142 97
E 43 145 109
E 43 148 104
E 43 152 93
E 43 157 97
E 43 160 101
E 44 48 98
E 44 53 106
E 44 59 100
E 44 64 105
E 44 73 97
E 44 90 102
E 44 95 94
E 44 110 99
E 44 117 103
E 44 120 92
E 44 122 99
E 44 125 99
E 44 129 103
E 44 131 99
E 44 140 93
E 45 47 98
E 45 49 92
E 45 50 98
E 45 51 96
E 45 58 99
E 45 66 98
E 45 69 99
E 45 71 87
E 45 72 106
E 45 73 102
E 45 75 97
E 45 76 102
E 45 77 104
E 45 93 101
E 45 97 98
E 45 102 102
E 45 105 92
E 45 111 101
E 45 121 107
E 45 135 86
E 45 139 103
E 45 147 93
E 46 48 106
E 46 53 100
E 46 58 99
E 46 66 99
E 46 74 106
E 46 77 108
E 46 78 91
E 46 83 100
E 46 86 100
E 46 111 100
E 46 115 112
E 46 120 95
E 46 125 94
E 46 127 101
E 46 130 94
E 46 131 105
E 46 135 100
E 46 140 108
E 46 153 96
E 47 50 102
E 47 58 94
E 47 62 96
E 47 63 105
E 47 70 102
E 47 74 98
E 47 80 97
E 47 81 101
E 47 83 105
E 47 85 89
E 47 90 98
E 47 102 107
E 47 104 94
E 47 110 85
E 47 112 109
E 47 120 99
E 47 127 107
E 47 134 97
E 47 136 108
E 47 146 96
E 47 148 104
E 48 49 106
E 48 57 100
E 48 60 110
E 48 64 97
E 48 66 91
E 48 68 103
E 48 77 97
E 48 78 101
E 48 80 102
E 48 81 97
E 48 82 100
E 48 83 98
E 48 84 105
E 48 87 106
E 48 93 100
E 48 94 93
E 48 105 102
E 48 106 105
E 48 107 100
E 48 108 95
E 48 113 107
E 48 120 97
E 48 123 99
E 48 134 103
E 49 50 102
E 49 54 109
E 49 60 95
E 49 64 100
E 49 68 103
E 49 75 100
E 49 81 102
E 49 84 105
E 49 91 107
E 49 94 102
E 49 104 103
E 49 108 104
E 49 109 102
E 49 115 102
E 49 123 107
E 49 128 99
E 49 130 102
E 49 133 93
E 49 138 97
E 49 148 101
E 49 156 107
E 49 159 104
E 50 58 98
E 50 67 97
E 50 77 96
E 50 83 100
E 50 85 97
E 50 86 104
E 50 93 95
E 50 103 95
E 50 107 103
E 50 114 101
E 50 123 99
E 50 137 107
E 50 142 106
E 50 145 101
E 50 148 103
E 51 54 101
E 51 55 96
E 51 58 99
E 51 61 99
E 51 63 106
E 51 68 103
E 51 71 100
E 51 83 95
E 51 86 100
E 51 98 106
E 51 100 103
E 51 107 105
E 51 109 103
E 51 119 102
E 51 124 100
E 51 136 96
E 51 141 99
E 51 144 103
E 51 148 92
E 51 155 98
E 51 158 107
E 51 159 98
E 52 54 104
E 52 56 95
E 52 57 103
E 52 58 101
E 52 65 102
E 52 66 100
E 52 73 97
E 52 78 100
E 52 84 105
E 52 85 89
E 52 87 99
E 52 91 104
E 52 103 104
E 52 104 104
E 52 110 99
E 52 113 105
E 52 115 106
E 52 122 96
E 52 124 101
E 52 134 98
E 52 135 96
E 52 139 107
E 52 147 96
E 52 156 100
E 52 157 102
E 53 73 95
E 53 81 94
E 53 89 102
E 53 91 102
E 53 95 103
E 53 105 99
E 53 106 92
E 53 130 98
E 53 136 101
E 53 137 99
E 53 142 101
E 53 146 94
E 53 148 105
E 53 158 103
E 54 56 104
E 54 59 98
E 54 77 98
E 54 80 103
E 54 85 99
E 54 90 97
E 54 91 102
E 54 94 95
E 54 96 95
E 54 105 101
E 54 109 96
E 54 112 109
E 54 124 88
E 54 129 93
E 54 131 94
E 54 134 104
E 54 136 101
E 54 145 96
E 54 147 100
E 54 152 87
E 54 156 95
E 54 158 107
E 54 159 99
E 55 58 99
E 55 62 102
E 55 63 102
E 55 73 106
E 55 74 105
E 55 75 104
E 55 85 104
E 55 89 105
E 55 111 102
E 55 114 99
E 55 128 101
E 55 131 98
E 55 138 100
E 55 143 96
E 55 146 93
E 55 149 105
E 55 151 110
E 55 156 103
E 55 159 99
E 56 57 95
E 56 59 96
E 56 65 105
E 56 72 92
E 56 77 100
E 56 81 103
E 56 86 91
E 56 91 102
E 56 94 112
E 56 100 98
E 56 102 99
E 56 106 98
E 56 122 96
E 56 123 104
E 56 129 107
E 56 133 100
E 56 136 101
E 56 141 91
E 56 144 102
E 56 148 105
E 56 153 95
E 56 156 100
E 57 60 107
E 57 64 96
E 57 66 105
E 57 70 99
E 57 74 102
E 57 75 106
E 57 78 99
E 57 80 98
E 57 96 98
E 57 103 98
E 57 111 101
E 57 113 102
E 57 121 103
E 57 122 98
E 57 128 106
E 57 144 100
E 57 149 101
E 57 156 100
E 58 62 92
E 58 64 107
E 58 75 102
E 58 76 101
E 58 81 98
E 58 82 103
E 58 93 97
E 58 95 105
E 58 96 112
E 58 97 102
E 58 99 104
E 58 106 102
E 58 111 102
E 58 118 107
E 58 121 101
E 58 124 86
E 58 133 94
E 58 148 98
E 58 151 97
E 58 155 94
E 58 158 103
E 59 66 101
E 59 73 98
E 59 80 100
E 59 91 98
E 59 99 101
E 59 101 105
E 59 112 102
E 59 114 90
E 59 125 102
E 59 128 102
E 59 130 101
E 59 137 100
E 59 138 108
E 59 139 100
E 59 141 93
E 59 150 95
E 59 151 101
E 59 154 94
E 60 63 101
E 60 65 91
E 60 69 97
E 60 73 96
E 60 91 87
E 60 103 100
E 60 104 96
E 60 116 100
E 60 119 89
E 60 124 97
E 60 127 102
E 60 131 104
E 60 132 98
E 60 133 105
E 60 137 101
E 60 138 96
E 60 160 92
E 61 66 101
E 61 69 106
E 61 71 99
E 61 72 103
E 61 76 96
E 61 80 103
E 61 88 95
E 61 95 95
E 61 98 103
E 61 99 93
E 61 102 95
E 61 110 89
E 61 127 103
E 61 132 97
E 61 139 90
E 61 140 103
E 61 141 103
E 61 144 98
E 61 147 95
E 61 148 108
E 61 149 109
E 61 158 99
E 62 68 93
E 62 72 103
E 62 74 99
E 62 75 94
E 62 83 97
E 62 84 90
E 62 88 99
E 62 92 106
E 62 97 104
E 62 109 101
E 62 110 104
E 62 114 106
E 62 127 99
E 62 131 90
E 62 137 101
E 62 144 99
E 62 160 102
E 63 68 104
E 63 75 104
E 63 77 102
E 63 80 99
E 63 83 101
E 63 90 100
E 63 91 105
E 63 93 105
E 63 98 100
E 63 111 109
E 63 116 98
E 63 117 96
E 63 122 101
E 63 129 96
E 63 132 100
E 63 133 102
E 63 134 103
E 63 136 99
E 63 140 101
E 63 143 105
E 63 147 104
E 63 148 104
E 63 152 104
E 63 154 93
E 63 157 95
E 64 65 105
E 64 72 95
E 64 79 96
E 64 80 103
E 64 86 100
E 64 92 99
E 64 105 107
E 64 106 96
E 64 110 108
E 64 115 105
E 64 117 98
E 64 119 93
E 64 122 89
E 64 127 106
E 64 131 102
E 64 137 106
E 64 138 100
E 64 140 100
E 64 144 105
E 64 146 98
E 64 149 98
E 64 153 105
E 64 155 97
E 64 157 101
E 65 67 101
E 65 68 98
E 65 75 113
E 65 80 107
E 65 82 105
E 65 85 102
E 65 89 108
E 65 92 98
E 65 93 98
E 65 95 110
E 65 96 92
E 65 99 100
E 65 103 104
E 65 111 96
E 65 114 98
E 65 115 100
E 65 140 100
E 65 141 99
E 65 145 102
E 65 152 89
E 65 158 95
E 66 69 99
E 66 80 99
E 66 86 98
E 66 88 98
E 66 89 107
E 66 95 103
E 66 98 96
E 66 110 103
E 66 113 104
E 66 114 102
E 66 124 98
E 66 126 101
E 66 127 96
E 66 133 92
E 66 139 106
E 66 143 99
E 66 144 92
E 67 68 93
E 67 70 101
E 67 71 101
E 67 74 106
E 67 78 101
E 67 85 88
E 67 86 98
E 67 92 108
E 67 95 101
E 67 101 95
E 67 103 94
E 67 106 99
E 67 108 98
E 67 109 100
E 67 114 90
E 67 120 109
E 67 126 95
E 67 135 107
E 67 144 103
E 67 146 101
E 67 150 94
E 67 158 96
E 68 69 99
E 68 77 101
E 68 91 100
E 68 94 106
E 68 99 99
E 68 100 94
E 68 102 101
E 68 103 101
E 68 114 96
E 68 116 93
E 68 118 99
E 68 119 98
E 68 128 107
E 68 133 101
E 68 139 97
E 68 145 88
E 68 154 100
E 68 155 99
E 69 75 90
E 69 76 98
E 69 82 92
E 69 84 104
E 69 86 92
E 69 93 90
E 69 95 96
E 69 97 102
E 69 98 102
E 69 103 102
E 69 104 106
E 69 105 102
E 69 125 89
E 69 127 101
E 69 136 104
E 69 151 103
E 69 155 101
E 70 78 101
E 70 86 103
E 70 93 90
E 70 99 107
E 70 101 92
E 70 105 100
E 70 107 101
E 70 108 101
E 70 114 102
E 70 116 101
E 70 120 97
E 70 129 98
E 70 130 93
E 70 133 88
E 70 140 95
E 70 143 103
E 70 145 95
E 70 148 103
E 70 152 96
E 70 160 98
E 71 75 105
E 71 83 104
E 71 92 101
E 71 108 99
E 71 112 92
E 71 121 94
E 71 124 93
E 71 126 101
E 71 131 96
E 71 134 106
E 71 138 96
E 71 144 101
E 71 150 102
E 71 153 96
E 72 74 100
E 72 75 92
E 72 77 109
E 72 78 105
E 72 82 99
E 72 83 104
E 72 85 100
E 72 87 93
E 72 100 99
E 72 103 102
E 72 107 95
E 72 108 105
E 72 112 99
E 72 114 108
E 72 121 100
E 72 122 97
E 72 126 100
E 72 130 106
E 72 135 97
E 72 137 103
E 72 144 98
E 72 145 100
E 72 150 96
E 72 152 102
E 72 156 91
E 72 159 104
E 72 160 106
E 73 89 105
E 73 90 97
E 73 91 107
E 73 93 95
E 73 99 89
E 73 104 101
E 73 107 104
E 73 108 97
E 73 116 96
E 73 119 106
E 73 123 96
E 73 134 94
E 73 146 103
E 73 148 104
E 73 151 96
E 73 155 99
E 73 159 92
E 74 81 95
E 74 88 95
E 74 92 100
E 74 100 97
E 74 101 98
E 74 102 106
E 74 106 100
E 74 113 100
E 74 116 107
E 74 119 98
E 74 121 94
E 74 125 101
E 74 126 97
E 74 129 95
E 74 130 97
E 74 131 97
E 74 135 92
E 74 137 100
E 74 140 100
E 74 143 102
E 75 81 100
E 75 86 97
E 75 90 99
E 75 106 104
E 75 110 100
E 75 111 98
E 75 113 98
E 75 114 92
E 75 118 106
E 75 124 102
E 75 125 100
E 75 126 93
E 75 140 101
E 75 142 107
E 75 153 103
E 75 159 103
E 75 160 99
E 76 81 94
E 76 86 98
E 76 88 113
E 76 96 100
E 76 98 93
E 76 117 99
E 76 118 95
E 76 119 100
E 76 123 99
E 76 125 98
E 76 135 103
E 76 142 86
E 76 145 103
E 76 146 90
E 76 150 103
E 76 151 98
E 76 152 99
E 76 155 106
E 76 158 93
E 77 82 99
E 77 83 88
E 77 88 100
E 77 94 98
E 77 99 94
E 77 104 102
E 77 110 90
E 77 116 93
E 77 117 101
E 77 121 106
E 77 131 102
E 77 133 109
E 77 135 102
E 77 136 92
E 77 139 99
E 77 140 101
E 77 141 103
E 77 144 106
E 77 149 106
E 77 160 97
E 78 91 95
E 78 93 90
E 78 95 87
E 78 98 98
E 78 104 110
E 78 110 105
E 78 112 99
E 78 119 95
E 78 120 96
E 78 125 98
E 78 137 88
E 78 153 103
E 79 82 104
E 79 83 101
E 79 84 99
E 79 87 107
E 79 89 93
E 79 91 102
E 79 92 92
E 79 113 101
E 79 116 102
E 79 117 101
E 79 123 103
E 79 125 102
E 79 126 111
E 79 127 104
E 79 128 96
E 79 135 102
E 79 139 99
E 79 141 97
E 79 143 113
E 79 146 103
E 79 151 94
E 79 157 101
E 79 160 107
E 80 82 105
E 80 86 95
E 80 90 99
E 80 99 104
E 80 100 100
E 80 102 105
E 80 117 103
E 80 119 98
E 80 121 97
E 80 127 105
E 80 128 95
E 80 130 99
E 80 132 106
E 80 138 101
E 80 140 96
E 80 145 97
E 80 155 108
E 81 82 99
E 81 85 103
E 81 93 97
E 81 102 101
E 81 104 94
E 81 113 98
E 81 129 101
E 81 131 96
E 81 133 97
E 81 136 97
E 81 140 102
E 81 141 101
E 81 148 98
E 81 155 104
E 81 159 97
E 82 84 104
E 82 86 96
E 82 90 105
E 82 94 99
E 82 95 101
E 82 97 106
E 82 107 98
E 82 114 97
E 82 115 107
E 82 118 96
E 82 121 101
E 82 124 107
E 82 127 97
E 82 131 99
E 82 135 102
E 82 136 97
E 82 138 107
E 82 152 98
E 82 158 88
E 82 159 98
E 83 88 110
E 83 89 96
E 83 93 91
E 83 97 96
E 83 103 98
E 83 104 101
E 83 105 92
E 83 109 100
E 83 113 109
E 83 115 103
E 83 128 94
E 83 130 104
E 83 131 104
E 83 134 103
E 83 141 106
E 83 143 104
E 83 153 95
E 83 154 95
E 84 87 97
E 84 91 104
E 84 101 99
E 84 102 95
E 84 128 102
E 84 129 96
E 84 132 101
E 84 138 107
E 84 141 94
E 84 145 103
E 84 149 106
E 84 150 104
E 84 153 88
E 85 93 109
E 85 105 97
E 85 109 98
E 85 111 83
E 85 114 97
E 85 115 95
E 85 124 96
E 85 128 102
E 85 137 102
E 85 139 101
E 85 141 102
E 85 154 98
E 86 93 89
E 86 96 100
E 86 97 90
E 86 117 98
E 86 126 102
E 86 132 102
E 86 156 95
E 86 159 100
E 87 90 99
E 87 92 94
E 87 94 94
E 87 111 96
E 87 118 102
E 87 120 98
E 87 122 95
E 87 129 92
E 87 131 100
E 87 136 107
E 87 140 97
E 87 143 104
E 87 147 104
E 87 154 103
E 87 156 100
E 87 159 102
E 88 98 98
E 88 117 98
E 88 118 104
E 88 128 99
E 88 130 107
E 88 138 106
E 88 150 102
E 88 153 95
E 89 90 99
E 89 106 100
E 89 118 100
E 89 125 90
E 89 128 102
E 89 130 90
E 89 134 104
E 89 138 104
E 89 139 92
E 89 144 101
E 89 145 97
E 90 94 112
E 90 104 94
E 90 107 93
E 90 116 102
E 90 121 98
E 90 122 99
E 90 123 96
E 90 135 101
E 90 148 95
E 90 155 100
E 90 159 107
E 90 160 111
E 91 94 96
E 91 99 95
E 91 109 102
E 91 111 91
E 91 119 98
E 91 127 101
E 91 140 101
E 91 141 99
E 91 150 98
E 91 151 100
E 92 94 97
E 92 97 90
E 92 107 103
E 92 115 98
E 92 116 105
E 92 117 99
E 92 125 95
E 92 127 104
E 92 132 103
E 92 135 102
E 92 142 98
E 92 144 98
E 92 155 93
E 92 160 108
E 93 95 106
E 93 107 94
E 93 113 93
E 93 117 103
E 93 125 97
E 93 126 93
E 93 136 93
E 93 143 99
E 93 148 99
E 93 150 91
E 93 154 91
E 93 155 101
E 93 156 101
E 93 157 94
E 93 159 100
E 94 103 98
E 94 108 100
E 94 112 101
E 94 118 102
E 94 119 108
E 94 120 105
E 94 121 99
E 94 127 104
E 94 130 96
E 94 134 97
E 94 152 110
E 94 155 91
E 94 158 97
E 95 96 99
E 95 102 102
E 95 122 94
E 95 127 100
E 95 131 106
E 95 132 97
E 95 135 97
E 95 137 100
E 95 148 92
E 95 155 103
E 95 159 101
E 96 113 113
E 96 115 102
E 96 119 98
E 96 122 100
E 96 131 102
E 96 140 97
E 96 142 105
E 96 147 88
E 96 150 108
E 96 155 96
E 97 106 99
E 97 113 95
E 97 114 105
E 97 115 95
E 97 120 97
E 97 132 110
E 97 136 96
E 97 142 95
E 97 143 100
E 97 146 104
E 97 148 98
E 97 154 100
E 97 159 101
E 98 112 94
E 98 114 101
E 98 115 97
E 98 119 96
E 98 121 103
E 98 126 108
E 98 134 99
E 98 136 98
E 98 139 101
E 98 153 106
E 98 156 100
E 98 157 113
E 98 160 95
E 99 111 100
E 99 117 102
E 99 118 99
E 99 123 100
E 99 128 101
E 99 131 100
E 99 133 98
E 99 136 91
E 99 142 109
E 99 145 100
E 99 160 95
E 100 103 96
E 100 104 95
E 100 125 97
E 100 129 109
E 100 133 98
E 100 137 107
E 100 141 93
E 100 143 100
E 100 146 99
E 100 147 100
E 100 154 95
E 100 155 98
E 100 159 90
E 100 160 96
E 101 112 96
E 101 113 103
E 101 115 113
E 101 119 105
E 101 135 95
E 101 141 99
E 101 145 90
E 101 150 103
E 101 154 95
E 101 159 103
E 102 103 96
E 102 105 105
E 102 110 108
E 102 118 100
E 102 121 99
E 102 136 94
E 102 137 99
E 102 138 103
E 102 139 95
E 102 142 99
E 102 143 95
E 102 147 108
E 102 153 99
E 103 105 99
E 103 111 94
E 103 124 98
E 103 125 104
E 103 126 92
E 103 130 106
E 103 134 108
E 103 141 101
E 103 142 102
E 103 145 107
E 103 150 104
E 103 153 96
E 103 156 98
E 103 160 104
E 104 105 96
E 104 106 95
E 104 115 97
E 104 117 102
E 104 129 109
E 104 131 96
E 104 132 94
E 104 133 104
E 104 139 103
E 104 141 96
E 104 145 100
E 104 148 107
E 104 149 99
E 104 151 106
E 104 156 98
E 105 117 102
E 105 119 105
E 105 120 100
E 105 123 96
E 105 128 103
E 105 130 95
E 105 131 100
E 105 143 101
E 105 152 100
E 105 157 98
E 105 158 106
E 106 108 109
E 106 109 101
E 106 112 99
E 106 114 98
E 106 118 100
E 106 120 106
E 106 125 96
E 106 126 94
E 106 130 107
E 106 135 96
E 106 145 97
E 106 146 94
E 106 147 101
E 106 148 92
E 106 149 103
E 106 157 104
E 107 130 103
E 107 132 81
E 107 134 100
E 107 135 95
E 107 149 97
E 107 150 93
E 107 152 97
E 107 158 92
E 108 111 105
E 108 123 103
E 108 125 103
E 108 129 93
E 108 130 96
E 108 132 103
E 108 133 91
E 108 141 94
E 108 153 105
E 108 155 105
E 108 156 97
E 109 115 99
E 109 116 99
E 109 121 111
E 109 125 90
E 109 127 102
E 109 139 105
E 109 140 96
E 109 142 105
E 109 143 101
E 109 151 88
E 109 156 99
E 110 111 92
E 110 115 101
E 110 121 95
E 110 126 96
E 110 128 99
E 110 154 103
E 110 159 97
E 111 119 105
E 111 123 100
E 111 124 98
E 111 133 104
E 111 145 102
E 111 146 99
E 111 154 104
E 111 155 102
E 111 158 100
E 111 160 94
E 112 115 102
E 112 116 98
E 112 124 114
E 112 130 106
E 112 136 100
E 112 144 102
E 112 146 88
E 112 150 96
E 112 152 95
E 112 153 97
E 112 158 100
E 112 159 101
E 113 118 97
E 113 126 95
E 113 132 88
E 113 135 104
E 113 138 98
E 113 141 100
E 113 144 96
E 113 145 95
E 113 149 97
E 113 156 99
E 113 157 106
E 113 160 96
E 114 115 94
E 114 123 99
E 114 131 102
E 114 133 111
E 114 134 112
E 114 136 102
E 114 138 93
E 114 141 103
E 114 154 109
E 114 157 100
E 114 158 95
E 115 119 102
E 115 132 97
E 115 133 98
E 115 135 97
E 115 136 89
E 115 138 102
E 115 141 103
E 115 150 94
E 115 152 98
E 116 135 99
E 116 139 100
E 116 144 108
E 116 150 104
E 116 152 98
E 116 155 105
E 117 125 95
E 117 132 96
E 117 133 99
E 117 134 103
E 117 136 103
E 117 149 111
E 117 151 100
E 117 157 102
E 118 120 106
E 118 125 101
E 118 129 102
E 118 130 90
E 118 134 91
E 118 140 107
E 118 147 91
E 118 155 99
E 119 123 102
E 119 124 101
E 119 138 103
E 119 144 96
E 119 147 102
E 119 148 115
E 119 150 101
E 119 154 99
E 119 156 91
E 119 158 99
E 119 160 92
E 120 129 102
E 120 147 86
E 120 157 97
E 120 159 98
E 121 122 94
E 121 125 102
E 121 129 100
E 121 130 104
E 121 136 100
E 121 137 97
E 121 140 101
E 121 143 105
E 121 151 100
E 121 156 114
E 121 160 103
E 122 123 105
E 122 127 106
E 122 128 104
E 122 136 98
E 122 141 103
E 122 143 110
E 122 154 102
E 122 155 100
E 123 128 99
E 123 129 99
E 123 132 90
E 123 135 98
E 123 138 99
E 123 148 89
E 123 154 96
E 123 155 103
E 123 156 101
E 124 129 106
E 124 132 99
E 124 146 97
E 124 147 102
E 124 151 108
E 125 139 102
E 125 153 102
E 125 156 99
E 125 160 99
E 126 127 103
E 126 145 93
E 126 148 99
E 126 151 98
E 126 153 94
E 126 157 100
E 127 129 101
E 127 136 99
E 127 144 100
E 127 147 99
E 127 152 104
E 127 157 87
E 127 159 101
E 128 133 96
E 128 137 103
E 128 138 100
E 128 140 94
E 128 142 100
E 128 149 103
E 128 154 98
E 128 155 98
E 128 157 96
E 129 139 96
E 129 140 91
E 129 143 96
E 129 147 106
E 129 149 101
E 129 153 110
E 129 155 103
E 130 132 98
E 130 137 98
E 130 142 99
E 130 146 101
E 130 147 101
E 130 155 94
E 130 159 91
E 131 144 95
E 131 147 100
E 131 152 98
E 131 155 96
E 132 137 102
E 132 138 99
E 132 142 88
E 132 149 108
E 132 153 100
E 132 158 107
E 133 139 104
E 133 149 93
E 133 151 97
E 133 155 99
E 134 137 93
E 134 138 98
E 134 139 105
E 134 140 99
E 134 143 96
E 134 144 94
E 134 156 103
E 135 137 97
E 135 141 96
E 135 147 100
E 135 149 98
E 135 159 108
E 136 138 101
E 136 141 99
E 136 144 96
E 136 149 102
E 136 151 96
E 136 158 98
E 137 139 101
E 137 143 105
E 137 144 102
E 137 150 102
E 137 151 100
E 137 154 97
E 138 140 92
E 138 145 88
E 138 148 100
E 138 149 105
E 139 141 109
E 139 145 109
E 139 150 99
E 139 152 98
E 140 148 97
E 140 154 101
E 140 156 96
E 141 145 95
E 141 150 90
E 141 160 102
E 142 152 106
E 142 153 101
E 142 157 106
E 142 158 105
E 143 147 103
E 143 148 95
E 143 156 101
E 144 146 101
E 145 152 102
E 145 153 106
E 145 157 99
E 146 148 97
E 147 152 101
E 147 153 94
E 147 155 92
E 147 159 104
E 147 160 106
E 148 152 95
E 148 157 99
E 149 152 88
E 150 151 101
E 150 153 102
E 150 156 96
E 150 157 97
E 150 159 100
E 151 153 104
E 151 158 100
E 152 159 98
E 153 154 102
E 153 158 99
E 153 159 95
E 155 156 103
E 156 159 95
E 157 159 105
END

SECTION Terminals
Terminals 40
T 1
T 2
T 3
T 4
T 5
T 6
T 7
T 8
T 9
T 10
T 11
T 12
T 13
T 14
T 15
T 16
T 17
T 18
T 19
T 20
T 21
T 22
T 23
T 24
T 25
T 26
T 27
T 28
T 29
T 30
T 31
T 32
T 33
T 34
T 35
T 36
T 37
T 38
T 39
T 40
END

EOF
